config:eval_tsp="2022-12-05 06:49:12"
config:arch=arch5
config:num_train_worker=3
config:num_sample_worker=1
config:sample_type=khop2
config:root_path=/nvme/graph-learning-copy/samgraph/
config:dataset=papers100M
config:pipeline=False
config:cache_policy=coll_cache_asymm_link
config:cache_percentage=0.01
config:num_epoch=4
config:batch_size=2000
config:num_hidden=256
config:max_sampling_jobs=1
config:max_copying_jobs=1
config:barriered_epoch=1
config:presample_epoch=2
config:omp_thread_num=13
config:unsupervised=True
config:amp=True
config:rolling=0
config:fanout=[25, 10]
config:lr=0.003
config:dropout=0.5
config:single_gpu=False
config:max_num_step=1000
config:validate_configs=False
config:report_acc=0
config:dataset_path=/nvme/graph-learning-copy/samgraph/papers100M
config:torch_thread_num=13
config:train_workers=['cuda:0', 'cuda:1', 'cuda:2']
config:sample_workers=['cuda:3']
config:num_fanout=2
config:num_layer=2
config:_run_mode=RunMode.FGNN
config:_log_level=warn
config:_profile_level=3
config:_empty_feat=0
config:_arch=5
config:_sample_type=5
config:_cache_policy=13
test_result:init:input_scale_factor=1.1206
0 :  {link #0 : 1}, {link #1 : 2},
1 :  {link #0 : 2}, {link #1 : 0},
2 :  {link #0 : 0}, {link #1 : 1},
0 :  {link #0 : 1}, {link #1 : 2},
1 :  {link #0 : 2}, {link #1 : 0},
2 :  {link #0 : 0}, {link #1 : 1},
0 :  {link #0 : 1}, {link #1 : 2},
1 :  {link #0 : 2}, {link #1 : 0},
2 :  {link #0 : 0}, {link #1 : 1},
Set parameter WLSAccessID
Set parameter WLSSecret
Set parameter LicenseID
Set parameter TimeLimit to value 200
Set parameter MIPGap to value 0.05
Set parameter GomoryPasses to value 0
Set parameter Aggregate to value 0
Set parameter LogFile to value "cppsolver.log"
Set parameter Threads to value 26
Academic license - for non-commercial use only - registered to xiaoniu.sxn@sjtu.edu.cn
Gurobi Optimizer version 9.5.1 build v9.5.1rc2 (linux64)
Thread count: 40 physical cores, 80 logical processors, using up to 26 threads
Academic license - for non-commercial use only - registered to xiaoniu.sxn@sjtu.edu.cn
Optimize a model with 21435 rows, 10204 columns and 64275 nonzeros
Model fingerprint: 0xf069cd7f
Variable types: 4 continuous, 10200 integer (10200 binary)
Coefficient statistics:
  Matrix range     [4e-04, 4e+02]
  Objective range  [1e+00, 1e+00]
  Bounds range     [1e+00, 1e+00]
  RHS range        [1e+00, 5e+02]
Found heuristic solution: objective 2.000000e+09
Presolve removed 12242 rows and 0 columns
Presolve time: 0.09s
Presolved: 9193 rows, 10204 columns, 37753 nonzeros
Found heuristic solution: objective 24105.397713
Variable types: 4 continuous, 10200 integer (10200 binary)

Root relaxation: objective 1.686754e+04, 7013 iterations, 0.06 seconds (0.04 work units)

    Nodes    |    Current Node    |     Objective Bounds      |     Work
 Expl Unexpl |  Obj  Depth IntInf | Incumbent    BestBd   Gap | It/Node Time

     0     0 16867.5440    0   16 24105.3977 16867.5440  30.0%     -    0s
H    0     0                    16882.715263 16867.5440  0.09%     -    0s

Explored 1 nodes (9014 simplex iterations) in 0.77 seconds (0.52 work units)
Thread count was 26 (of 80 available processors)

Solution count 3: 16882.7 24105.4 2e+09 

Optimal solution found (tolerance 5.00e-02)
Best objective 1.688271526302e+04, best bound 1.686754404559e+04, gap 0.0899%
coll_cache:optimal_local_rate=0.0866444,0.124645,0.120036,
coll_cache:optimal_remote_rate=0.244681,0.206681,0.211289,
coll_cache:optimal_cpu_rate=0.668675,0.668675,0.668675,
z=16882.7
test_result:init:feat_nbytes=56862697472
test_result:init:cache_nbytes=574307840
test_result:init:feat_nbytes=56862697472
test_result:init:cache_nbytes=571726336
test_result:init:feat_nbytes=56862697472
test_result:init:cache_nbytes=574307840
[Train  Worker 2/3] Started with PID 85003(Tesla V100-SXM2-16GB)
[Train  Worker 2] run train for 4 epochs with 1002 steps
[Train  Worker 1/3] Started with PID 85002(Tesla V100-SXM2-16GB)
[Train  Worker 1] run train for 4 epochs with 1002 steps
[CUDA] cuda0: usage: 5.76 GB
[SAM] cuda0 data alloc        : 0.00 Bytes
[SAM] cuda0 workspace         : 532.73 MB
[SAM] cuda0 workspace reserve : 262.69 MB
[SAM] cuda0 total             : 532.73 MB
[Train  Worker 0/3] Started with PID 85000(Tesla V100-SXM2-16GB)
[Train  Worker 0] run train for 4 epochs with 1002 steps
Epoch 00000 | Epoch Time 8.4596 | Total Train Time(Profiler) 3.7641 | Copy Time 4.6623
[CUDA] cuda0: usage: 5.76 GB
[SAM] cuda0 data alloc        : 0.00 Bytes
[SAM] cuda0 workspace         : 532.73 MB
[SAM] cuda0 workspace reserve : 263.27 MB
[SAM] cuda0 total             : 532.73 MB
Epoch 00001 | Epoch Time 7.1067 | Total Train Time(Profiler) 2.4320 | Copy Time 4.6439
[CUDA] cuda0: usage: 5.76 GB
[SAM] cuda0 data alloc        : 0.00 Bytes
[SAM] cuda0 workspace         : 532.73 MB
[SAM] cuda0 workspace reserve : 263.16 MB
[SAM] cuda0 total             : 532.73 MB
Epoch 00002 | Epoch Time 7.1240 | Total Train Time(Profiler) 2.4523 | Copy Time 4.6440
[CUDA] cuda0: usage: 5.76 GB
[SAM] cuda0 data alloc        : 0.00 Bytes
[SAM] cuda0 workspace         : 532.73 MB
[SAM] cuda0 workspace reserve : 262.69 MB
[SAM] cuda0 total             : 532.73 MB
Epoch 00003 | Epoch Time 7.1191 | Total Train Time(Profiler) 2.4541 | Copy Time 4.6376
[Train  Worker 1] Avg Epoch Time 7.1166 | Train Total Time(Profiler) 2.3925 | Copy Time 4.6929
[Train  Worker 2] Avg Epoch Time 7.1167 | Train Total Time(Profiler) 2.3950 | Copy Time 4.6925
[Train  Worker 0] Avg Epoch Time 7.1166 | Train Total Time(Profiler) 2.4461 | Copy Time 4.6418
    [Step(average) Profiler Level 1 E3 S1001]
        L1  sample           0.001988 | send           0.000479
        L1  recv             0.000000 | copy           0.000000 | convert time 0.000000 | train  0.000000
        L1  feature nbytes 0.00 Bytes | label nbytes 0.00 Bytes
        L1  id nbytes      0.00 Bytes | graph nbytes 0.00 Bytes
        L1  miss nbytes    0.00 Bytes | remote nbytes 0.00 Bytes
        L1  num nodes          453513 | num samples      513782
    [Step(average) Profiler Level 2 E3 S1001]
        L2  shuffle     0.000080 | core sample  0.000565 | id remap        0.001158
        L2  graph copy  0.000000 | id copy      0.000000 | cache feat copy 0.000000
        L2  last layer sample time 0.000271 | size 44708.710579
    [Step(average) Profiler Level 3 E3 S1001]
        L3  khop sample coo  0.000321 | khop sort coo      0.000000 | khop count edge     0.000034 | khop compact edge 0.000159
        L3  walk sample coo  0.000000 | walk topk total    0.000000 | walk topk step1     0.000000 | walk topk step2   0.000000
        L3  walk topk step3  0.000000 | walk topk step4    0.000000 | walk topk step5     0.000000
        L3  walk topk step6  0.000000 | walk topk step7    0.000000
        L3  remap unique     0.000175 | remap populate     0.000995 | remap mapnode       0.000000 | remap mapedge     0.000176
        L3  cache get_index  0.000000 | cache copy_index   0.000000 | cache extract_miss  0.000000
        L3  cache copy_miss  0.000000 | cache combine_miss 0.000000 | cache combine cache 0.000000 | cache combine remote 0.000000
        L3  label extract  0.000000
    [Init Profiler Level 1]
        L1  init     3.0773 | sampler init    57.1881 | trainer init 0.0000
    [Init Profiler Level 2]
        L2  load ds         4.5627 | init queue          43.5220
        L2  presample      10.4141 | build interal ds     1.7643
        L2  build cache     0.0000
    [Init Profiler Level 3]
        L3  load dataset: mmap     3.0745 | copy         1.4882
        L3  dist queue: alloc      0.0007 | pin         43.5213 | push     0.0000
        L3  presample: init        0.5882
        L3  presample: sample      4.0584 | copy         0.3015
        L3  presample: count       4.2248 | sort         0.4596
        L3  presample: reset       0.0024 | get rank     0.0326
        L3  internal: cuda ctx     1.4682 | cuda stream     0.2865
[Sample Worker 0/1] Started with PID 84998(Tesla V100-SXM2-16GB)
[Sample Worker 0] run sample for 4 epochs with 1002 steps
[Sample Worker 0] Avg Sample Total Time 2.4822 | Sampler Total Time(Profiler) 2.4725
test_result:sample_time=1.9920
test_result:get_cache_miss_index_time=0.0000
test_result:enqueue_samples_time=0.4805
test_result:epoch_time:sample_total=2.4822
[CUDA] cuda0: usage: 5.76 GB
[SAM] cuda0 data alloc        : 0.00 Bytes
[SAM] cuda0 workspace         : 532.73 MB
[SAM] cuda0 workspace reserve : 262.69 MB
[SAM] cuda0 total             : 532.73 MB
    [Step(average) Profiler Level 1 E3 S1001]
        L1  sample           0.000000 | send           0.000000
        L1  recv             0.000578 | copy           0.013999 | convert time 0.000434 | train  0.006786
        L1  feature nbytes  221.44 MB | label nbytes   15.62 KB
        L1  id nbytes      0.00 Bytes | graph nbytes 0.00 Bytes
        L1  miss nbytes     149.23 MB | remote nbytes   48.15 MB
        L1  num nodes               0 | num samples           0
    [Step(average) Profiler Level 2 E3 S1001]
        L2  shuffle     0.000000 | core sample  0.000000 | id remap        0.000000
        L2  graph copy  0.000003 | id copy      0.000000 | cache feat copy 0.013419
        L2  last layer sample time 0.000000 | size 0.000000
    [Step(average) Profiler Level 3 E3 S1001]
        L3  khop sample coo  0.000000 | khop sort coo      0.000000 | khop count edge     0.000000 | khop compact edge 0.000000
        L3  walk sample coo  0.000000 | walk topk total    0.000000 | walk topk step1     0.000000 | walk topk step2   0.000000
        L3  walk topk step3  0.000000 | walk topk step4    0.000000 | walk topk step5     0.000000
        L3  walk topk step6  0.000000 | walk topk step7    0.000000
        L3  remap unique     0.000000 | remap populate     0.000000 | remap mapnode       0.000000 | remap mapedge     0.000000
        L3  cache get_index  0.000346 | cache copy_index   0.000000 | cache extract_miss  0.000000
        L3  cache copy_miss  0.000000 | cache combine_miss 0.013048 | cache combine cache 0.000104 | cache combine remote 0.000694
        L3  label extract  0.000015
    [Step(max) Profiler Level 1 E3 S1001]
        L1  sample           0.000000 | send           0.000000
        L1  recv             0.000000 | copy           0.000000 | convert time 0.000000 | train  0.000000
        L1  feature nbytes 0.00 Bytes | label nbytes 0.00 Bytes
        L1  id nbytes      0.00 Bytes | graph nbytes    4.09 MB
        L1  miss nbytes    0.00 Bytes | remote nbytes 0.00 Bytes
        L1  num nodes               0 | num samples           0
    [Step(max) Profiler Level 2 E3 S1001]
        L2  shuffle     0.000000 | core sample  0.000000 | id remap        0.000000
        L2  graph copy  0.000000 | id copy      0.000000 | cache feat copy 0.000000
        L2  last layer sample time 0.000000 | size 0.000000
    [Step(max) Profiler Level 3 E3 S1001]
        L3  khop sample coo  0.000000 | khop sort coo      0.000000 | khop count edge     0.000000 | khop compact edge 0.000000
        L3  walk sample coo  0.000000 | walk topk total    0.000000 | walk topk step1     0.000000 | walk topk step2   0.000000
        L3  walk topk step3  0.000000 | walk topk step4    0.000000 | walk topk step5     0.000000
        L3  walk topk step6  0.000000 | walk topk step7    0.000000
        L3  remap unique     0.000000 | remap populate     0.000000 | remap mapnode       0.000000 | remap mapedge     0.000000
        L3  cache get_index  0.000000 | cache copy_index   0.000000 | cache extract_miss  0.000000
        L3  cache copy_miss  0.000000 | cache combine_miss 0.000000 | cache combine cache 0.000000 | cache combine remote 0.000000
        L3  label extract  0.000000
    [Step(min) Profiler Level 1 E3 S1001]
        L1  sample           0.000000 | send           0.000000
        L1  recv             0.000000 | copy           0.000000 | convert time 0.000000 | train  0.000000
        L1  feature nbytes 0.00 Bytes | label nbytes 0.00 Bytes
        L1  id nbytes      0.00 Bytes | graph nbytes    3.82 MB
        L1  miss nbytes    0.00 Bytes | remote nbytes 0.00 Bytes
        L1  num nodes               0 | num samples           0
    [Step(min) Profiler Level 2 E3 S1001]
        L2  shuffle     0.000000 | core sample  0.000000 | id remap        0.000000
        L2  graph copy  0.000000 | id copy      0.000000 | cache feat copy 0.000000
        L2  last layer sample time 0.000000 | size 0.000000
    [Step(min) Profiler Level 3 E3 S1001]
        L3  khop sample coo  0.000000 | khop sort coo      0.000000 | khop count edge     0.000000 | khop compact edge 0.000000
        L3  walk sample coo  0.000000 | walk topk total    0.000000 | walk topk step1     0.000000 | walk topk step2   0.000000
        L3  walk topk step3  0.000000 | walk topk step4    0.000000 | walk topk step5     0.000000
        L3  walk topk step6  0.000000 | walk topk step7    0.000000
        L3  remap unique     0.000000 | remap populate     0.000000 | remap mapnode       0.000000 | remap mapedge     0.000000
        L3  cache get_index  0.000000 | cache copy_index   0.000000 | cache extract_miss  0.000000
        L3  cache copy_miss  0.000000 | cache combine_miss 0.000000 | cache combine cache 0.000000 | cache combine remote 0.000000
        L3  label extract  0.000000
    [Init Profiler Level 1]
        L1  init     3.0773 | sampler init     0.0000 | trainer init 136.2952
    [Init Profiler Level 2]
        L2  load ds         3.0745 | init queue          43.4388
        L2  presample       0.0000 | build interal ds     1.4607
        L2  build cache    91.3917
    [Init Profiler Level 3]
        L3  load dataset: mmap     3.0745 | copy         0.0000
        L3  dist queue: alloc      0.0007 | pin         43.4381 | push     0.0000
        L3  presample: init        0.0000
        L3  presample: sample      0.0000 | copy         0.0000
        L3  presample: count       0.0000 | sort         0.0000
        L3  presample: reset       0.0000 | get rank     0.0000
        L3  internal: cuda ctx     1.4606 | cuda stream     0.0001
|===========================================================================|
|                  PyTorch CUDA memory summary, device ID 0                 |
|---------------------------------------------------------------------------|
|            CUDA OOMs: 0            |        cudaMalloc retries: 0         |
|===========================================================================|
|        Metric         | Cur Usage  | Peak Usage | Tot Alloc  | Tot Freed  |
|---------------------------------------------------------------------------|
| Allocated memory      |   13702 KB |  252147 KB |    1091 GB |    1091 GB |
|       from large pool |    9678 KB |  249461 KB |    1081 GB |    1081 GB |
|       from small pool |    4024 KB |    5288 KB |      10 GB |      10 GB |
|---------------------------------------------------------------------------|
| Active memory         |   13703 KB |  252147 KB |    1091 GB |    1091 GB |
|       from large pool |    9678 KB |  249461 KB |    1081 GB |    1081 GB |
|       from small pool |    4024 KB |    5288 KB |      10 GB |      10 GB |
|---------------------------------------------------------------------------|
| GPU reserved memory   |  413696 KB |  413696 KB |  413696 KB |       0 B  |
|       from large pool |  407552 KB |  407552 KB |  407552 KB |       0 B  |
|       from small pool |    6144 KB |    6144 KB |    6144 KB |       0 B  |
|---------------------------------------------------------------------------|
| Non-releasable memory |  223865 KB |  296302 KB |    1005 GB |    1005 GB |
|       from large pool |  221745 KB |  294229 KB |     995 GB |     995 GB |
|       from small pool |    2119 KB |    3399 KB |      10 GB |      10 GB |
|---------------------------------------------------------------------------|
| Allocations           |      39    |      56    |  183068    |  183029    |
|       from large pool |       3    |      14    |   65464    |   65461    |
|       from small pool |      36    |      45    |  117604    |  117568    |
|---------------------------------------------------------------------------|
| Active allocs         |      40    |      56    |  183068    |  183028    |
|       from large pool |       3    |      14    |   65464    |   65461    |
|       from small pool |      37    |      45    |  117604    |  117567    |
|---------------------------------------------------------------------------|
| GPU reserved segments |      12    |      12    |      12    |       0    |
|       from large pool |       9    |       9    |       9    |       0    |
|       from small pool |       3    |       3    |       3    |       0    |
|---------------------------------------------------------------------------|
| Non-releasable allocs |      14    |      24    |   73507    |   73493    |
|       from large pool |       3    |      13    |   41021    |   41018    |
|       from small pool |      11    |      16    |   32486    |   32475    |
|---------------------------------------------------------------------------|
| Oversize allocations  |       0    |       0    |       0    |       0    |
|---------------------------------------------------------------------------|
| Oversize GPU segments |       0    |       0    |       0    |       0    |
|===========================================================================|

test_result:epoch_time:copy_time=4.6418
test_result:convert_time=0.1449
test_result:train_time=2.3013
test_result:epoch_time:train_total=2.4461
test_result:cache_percentage=0.0100
test_result:cache_hit_rate=1.0000
test_result:run_time=39.7445
